215100.0
2169
0 1 5 6 7 9 10 11 12 13 17 18 23 26 29 32 33 38 40 41 44 46 47 50 52 55 59 60 61 63 64 71 72 75 76 77 78 79 81 84 85 86 87 89 92 93 97 99 100 103 105 107 108 109 111 112 113 115 117 119 120 122 123 124 125 126 130 131 133 135 139 140 141 143 144 145 146 147 148 149 150 152 155 157 159 160 162 163 165 167 168 170 171 175 176 181 183 185 186 187 188 189 194 195 198 199 